;; translated from ./bv/seq-z3.c.vmt
;; original benchmark available at: https://es-static.fbk.eu/people/griggio/ic3ia/index.html
;; author: Alberto Griggio <griggio@fbk.eu>
(set-logic HORN)
(declare-fun state (Bool Bool Bool Bool (_ BitVec 32) (_ BitVec 32) (_ BitVec 32) (_ BitVec 32) (_ BitVec 32)) Bool)
(assert (forall ((|.PC.2| Bool) (|.PC.3| Bool) (|.PC.2.next| Bool) (|.PC.0.next| Bool) (|.PC.1.next| Bool) (|.PC.3.next| Bool) (|n0__1$main| (_ BitVec 32)) (|n0__1$main.next| (_ BitVec 32)) (|k__7$main| (_ BitVec 32)) (|k__7$main.next| (_ BitVec 32)) (|__RET__$main.next| (_ BitVec 32)) (|__RET__$main| (_ BitVec 32)) (|n1__3$main| (_ BitVec 32)) (|n1__3$main.next| (_ BitVec 32)) (|i__5$main| (_ BitVec 32)) (|i__5$main.next| (_ BitVec 32)) (|__NONDET_INLINE_INIT__4__5$main#1| (_ BitVec 32)) (|__NONDET_INLINE_INIT__2__4$main#0| (_ BitVec 32)) (|.PC.0| Bool) (|.PC.1| Bool)) (=> (let ((.def_15 (and .PC.1 .PC.0)))
(let ((.def_12 (not .PC.2)))
(let ((.def_16 (and .def_12 .def_15)))
(let ((.def_10 (not .PC.3)))
(let ((.def_17 (and .def_10 .def_16)))
.def_17))))) (state |.PC.3| |.PC.2| |.PC.1| |.PC.0| |__RET__$main| |n0__1$main| |i__5$main| |k__7$main| |n1__3$main|))))
(assert (forall ((|.PC.2| Bool) (|.PC.3| Bool) (|.PC.2.next| Bool) (|.PC.0.next| Bool) (|.PC.1.next| Bool) (|.PC.3.next| Bool) (|n0__1$main| (_ BitVec 32)) (|n0__1$main.next| (_ BitVec 32)) (|k__7$main| (_ BitVec 32)) (|k__7$main.next| (_ BitVec 32)) (|__RET__$main.next| (_ BitVec 32)) (|__RET__$main| (_ BitVec 32)) (|n1__3$main| (_ BitVec 32)) (|n1__3$main.next| (_ BitVec 32)) (|i__5$main| (_ BitVec 32)) (|i__5$main.next| (_ BitVec 32)) (|__NONDET_INLINE_INIT__4__5$main#1| (_ BitVec 32)) (|__NONDET_INLINE_INIT__2__4$main#0| (_ BitVec 32)) (|.PC.0| Bool) (|.PC.1| Bool)) (=> (and (state |.PC.3| |.PC.2| |.PC.1| |.PC.0| |__RET__$main| |n0__1$main| |i__5$main| |k__7$main| |n1__3$main|) (let ((.def_69 (not .PC.0)))
(let ((.def_120 (and .PC.1 .def_69)))
(let ((.def_12 (not .PC.2)))
(let ((.def_172 (and .def_12 .def_120)))
(let ((.def_10 (not .PC.3)))
(let ((.def_173 (and .def_10 .def_172)))
(let ((.def_144 (not .PC.2.next)))
(let ((.def_39 (not .PC.0.next)))
(let ((.def_99 (and .PC.1.next .def_39)))
(let ((.def_167 (and .def_99 .def_144)))
(let ((.def_44 (not .PC.3.next)))
(let ((.def_168 (and .def_44 .def_167)))
(let ((.def_174 (and .def_168 .def_173)))
(let ((.def_58 (= n0__1$main.next n0__1$main)))
(let ((.def_56 (= k__7$main.next k__7$main)))
(let ((.def_163 (and .def_56 .def_58)))
(let ((.def_34 (= __RET__$main __RET__$main.next)))
(let ((.def_164 (and .def_34 .def_163)))
(let ((.def_62 (= n1__3$main.next n1__3$main)))
(let ((.def_165 (and .def_62 .def_164)))
(let ((.def_142 (= i__5$main.next i__5$main)))
(let ((.def_166 (and .def_142 .def_165)))
(let ((.def_169 (and .def_166 .def_168)))
(let ((.def_68 (not .PC.1)))
(let ((.def_103 (and .PC.0 .def_68)))
(let ((.def_161 (and .def_12 .def_103)))
(let ((.def_162 (and .def_10 .def_161)))
(let ((.def_170 (and .def_162 .def_169)))
(let ((.def_135 (bvslt (_ bv0 32) k__7$main)))
(let ((.def_50 (bvmul (_ bv20 32) n0__1$main)))
(let ((.def_52 (bvslt i__5$main .def_50)))
(let ((.def_152 (and .def_52 .def_135)))
(let ((.def_76 (bvadd (_ bv1 32) i__5$main)))
(let ((.def_77 (= i__5$main.next .def_76)))
(let ((.def_153 (and .def_77 .def_152)))
(let ((.def_126 (bvadd (_ bv4294967295 32) k__7$main)))
(let ((.def_127 (= k__7$main.next .def_126)))
(let ((.def_154 (and .def_127 .def_153)))
(let ((.def_155 (and .def_58 .def_154)))
(let ((.def_156 (and .def_34 .def_155)))
(let ((.def_157 (and .def_62 .def_156)))
(let ((.def_116 (and .PC.1.next .PC.0.next)))
(let ((.def_117 (and .PC.2.next .def_116)))
(let ((.def_118 (and .def_44 .def_117)))
(let ((.def_158 (and .def_118 .def_157)))
(let ((.def_15 (and .PC.1 .PC.0)))
(let ((.def_148 (and .PC.2 .def_15)))
(let ((.def_149 (and .def_10 .def_148)))
(let ((.def_159 (and .def_149 .def_158)))
(let ((.def_37 (not .PC.1.next)))
(let ((.def_64 (and .def_37 .PC.0.next)))
(let ((.def_145 (and .def_64 .def_144)))
(let ((.def_146 (and .def_44 .def_145)))
(let ((.def_136 (not .def_135)))
(let ((.def_137 (and .def_52 .def_136)))
(let ((.def_138 (and .def_56 .def_137)))
(let ((.def_139 (and .def_58 .def_138)))
(let ((.def_140 (and .def_34 .def_139)))
(let ((.def_141 (and .def_62 .def_140)))
(let ((.def_143 (and .def_141 .def_142)))
(let ((.def_147 (and .def_143 .def_146)))
(let ((.def_150 (and .def_147 .def_149)))
(let ((.def_89 (bvmul (_ bv6 32) n1__3$main)))
(let ((.def_91 (bvadd (_ bv128 32) .def_89)))
(let ((.def_92 (bvslt i__5$main .def_91)))
(let ((.def_108 (and .def_77 .def_92)))
(let ((.def_128 (and .def_108 .def_127)))
(let ((.def_129 (and .def_58 .def_128)))
(let ((.def_130 (and .def_34 .def_129)))
(let ((.def_131 (and .def_62 .def_130)))
(let ((.def_100 (and .PC.2.next .def_99)))
(let ((.def_101 (and .def_44 .def_100)))
(let ((.def_132 (and .def_101 .def_131)))
(let ((.def_121 (and .PC.2 .def_120)))
(let ((.def_122 (and .def_10 .def_121)))
(let ((.def_133 (and .def_122 .def_132)))
(let ((.def_93 (not .def_92)))
(let ((.def_27 (= i__5$main.next (_ bv0 32))))
(let ((.def_94 (and .def_27 .def_93)))
(let ((.def_95 (and .def_56 .def_94)))
(let ((.def_96 (and .def_58 .def_95)))
(let ((.def_97 (and .def_34 .def_96)))
(let ((.def_98 (and .def_62 .def_97)))
(let ((.def_119 (and .def_98 .def_118)))
(let ((.def_123 (and .def_119 .def_122)))
(let ((.def_79 (bvadd (_ bv1 32) k__7$main)))
(let ((.def_80 (= k__7$main.next .def_79)))
(let ((.def_109 (and .def_80 .def_108)))
(let ((.def_110 (and .def_58 .def_109)))
(let ((.def_111 (and .def_34 .def_110)))
(let ((.def_112 (and .def_62 .def_111)))
(let ((.def_65 (and .PC.2.next .def_64)))
(let ((.def_66 (and .def_44 .def_65)))
(let ((.def_113 (and .def_66 .def_112)))
(let ((.def_104 (and .PC.2 .def_103)))
(let ((.def_105 (and .def_10 .def_104)))
(let ((.def_114 (and .def_105 .def_113)))
(let ((.def_102 (and .def_98 .def_101)))
(let ((.def_106 (and .def_102 .def_105)))
(let ((.def_78 (and .def_52 .def_77)))
(let ((.def_81 (and .def_78 .def_80)))
(let ((.def_82 (and .def_58 .def_81)))
(let ((.def_83 (and .def_34 .def_82)))
(let ((.def_84 (and .def_62 .def_83)))
(let ((.def_40 (and .def_37 .def_39)))
(let ((.def_42 (and .def_40 .PC.2.next)))
(let ((.def_45 (and .def_42 .def_44)))
(let ((.def_85 (and .def_45 .def_84)))
(let ((.def_70 (and .def_68 .def_69)))
(let ((.def_71 (and .PC.2 .def_70)))
(let ((.def_72 (and .def_10 .def_71)))
(let ((.def_86 (and .def_72 .def_85)))
(let ((.def_53 (not .def_52)))
(let ((.def_54 (and .def_27 .def_53)))
(let ((.def_57 (and .def_54 .def_56)))
(let ((.def_59 (and .def_57 .def_58)))
(let ((.def_60 (and .def_34 .def_59)))
(let ((.def_63 (and .def_60 .def_62)))
(let ((.def_67 (and .def_63 .def_66)))
(let ((.def_73 (and .def_67 .def_72)))
(let ((.def_30 (= k__7$main.next (_ bv0 32))))
(let ((.def_23 (= n1__3$main.next |__NONDET_INLINE_INIT__4__5$main#1|)))
(let ((.def_20 (= n0__1$main.next |__NONDET_INLINE_INIT__2__4$main#0|)))
(let ((.def_24 (and .def_20 .def_23)))
(let ((.def_28 (and .def_24 .def_27)))
(let ((.def_31 (and .def_28 .def_30)))
(let ((.def_35 (and .def_31 .def_34)))
(let ((.def_46 (and .def_35 .def_45)))
(let ((.def_16 (and .def_12 .def_15)))
(let ((.def_17 (and .def_10 .def_16)))
(let ((.def_47 (and .def_17 .def_46)))
(let ((.def_74 (or .def_47 .def_73)))
(let ((.def_87 (or .def_74 .def_86)))
(let ((.def_107 (or .def_87 .def_106)))
(let ((.def_115 (or .def_107 .def_114)))
(let ((.def_124 (or .def_115 .def_123)))
(let ((.def_134 (or .def_124 .def_133)))
(let ((.def_151 (or .def_134 .def_150)))
(let ((.def_160 (or .def_151 .def_159)))
(let ((.def_171 (or .def_160 .def_170)))
(let ((.def_175 (or .def_171 .def_174)))
.def_175)))))))))))))))))))))))))))))))))))))))))))))))))))))))))))))))))))))))))))))))))))))))))))))))))))))))))))))))))))))))))))))))))))))))))))))) (state |.PC.3.next| |.PC.2.next| |.PC.1.next| |.PC.0.next| |__RET__$main.next| |n0__1$main.next| |i__5$main.next| |k__7$main.next| |n1__3$main.next|))))
(assert (forall ((|.PC.2| Bool) (|.PC.3| Bool) (|.PC.2.next| Bool) (|.PC.0.next| Bool) (|.PC.1.next| Bool) (|.PC.3.next| Bool) (|n0__1$main| (_ BitVec 32)) (|n0__1$main.next| (_ BitVec 32)) (|k__7$main| (_ BitVec 32)) (|k__7$main.next| (_ BitVec 32)) (|__RET__$main.next| (_ BitVec 32)) (|__RET__$main| (_ BitVec 32)) (|n1__3$main| (_ BitVec 32)) (|n1__3$main.next| (_ BitVec 32)) (|i__5$main| (_ BitVec 32)) (|i__5$main.next| (_ BitVec 32)) (|__NONDET_INLINE_INIT__4__5$main#1| (_ BitVec 32)) (|__NONDET_INLINE_INIT__2__4$main#0| (_ BitVec 32)) (|.PC.0| Bool) (|.PC.1| Bool)) (=> (state |.PC.3| |.PC.2| |.PC.1| |.PC.0| |__RET__$main| |n0__1$main| |i__5$main| |k__7$main| |n1__3$main|) (let ((.def_69 (not .PC.0)))
(let ((.def_120 (and .PC.1 .def_69)))
(let ((.def_12 (not .PC.2)))
(let ((.def_172 (and .def_12 .def_120)))
(let ((.def_10 (not .PC.3)))
(let ((.def_173 (and .def_10 .def_172)))
(let ((.def_176 (not .def_173)))
.def_176))))))))))
(check-sat)
